QPLIB_3642
QBB
maximize
1035 # number of variables
2024 # number of quadratic terms in objective
2 1 4.0
145 1 -4.0
463 1 -4.0
657 1 4.0
596 2 -4.0
846 2 -4.0
1004 2 4.0
4 3 4.0
136 3 -4.0
500 3 4.0
524 3 -4.0
522 4 -4.0
523 4 -4.0
912 4 4.0
78 5 4.0
503 5 -4.0
824 5 4.0
868 5 -4.0
7 6 4.0
12 6 4.0
15 6 -4.0
438 6 -4.0
105 7 -4.0
448 7 -4.0
713 7 4.0
481 8 4.0
499 8 -4.0
525 8 -4.0
549 8 4.0
10 9 -4.0
18 9 4.0
870 9 4.0
873 9 -4.0
27 10 4.0
632 10 4.0
633 10 -4.0
91 11 -4.0
396 11 4.0
439 11 -4.0
676 11 4.0
67 12 -4.0
396 12 -4.0
680 12 4.0
78 13 -4.0
397 13 -4.0
781 13 4.0
921 13 4.0
191 14 4.0
490 14 -4.0
674 14 -4.0
880 14 4.0
82 15 -4.0
644 15 4.0
988 15 4.0
154 16 -4.0
514 16 4.0
591 16 4.0
617 16 -4.0
398 17 -4.0
503 17 -4.0
826 17 4.0
872 17 4.0
398 18 -4.0
746 18 4.0
829 18 -4.0
20 19 -4.0
179 19 4.0
424 19 -4.0
927 19 4.0
104 20 4.0
489 20 -4.0
748 20 4.0
93 21 -4.0
396 21 -4.0
610 21 4.0
935 21 4.0
168 22 -4.0
492 22 4.0
567 22 4.0
652 22 -4.0
24 23 4.0
25 23 -4.0
187 23 -4.0
957 23 4.0
159 24 4.0
406 24 -4.0
419 24 -4.0
173 25 4.0
409 25 -4.0
1009 25 4.0
27 26 4.0
397 26 -4.0
709 26 4.0
875 26 -4.0
1031 27 -4.0
1034 27 -4.0
29 28 -4.0
166 28 4.0
426 28 -4.0
980 28 4.0
116 29 4.0
511 29 -4.0
786 29 4.0
31 30 4.0
474 30 4.0
593 30 -4.0
688 30 -4.0
329 31 4.0
539 31 -4.0
996 31 -4.0
33 32 4.0
183 32 4.0
801 32 -4.0
897 32 -4.0
292 33 -4.0
301 33 4.0
474 33 -4.0
35 34 4.0
36 34 -4.0
200 34 -4.0
1013 34 4.0
85 35 -4.0
146 35 4.0
417 35 -4.0
186 36 4.0
411 36 -4.0
732 36 4.0
230 37 4.0
295 37 4.0
918 37 -4.0
974 37 -4.0
39 38 4.0
398 38 -4.0
671 38 4.0
924 38 -4.0
974 39 4.0
975 39 -4.0
978 39 -4.0
41 40 4.0
42 40 -4.0
152 40 4.0
431 40 -4.0
54 41 4.0
423 41 -4.0
583 41 -4.0
127 42 4.0
535 42 -4.0
831 42 4.0
44 43 4.0
400 43 -4.0
642 43 -4.0
835 43 4.0
152 44 -4.0
191 44 -4.0
192 44 4.0
46 45 4.0
461 45 4.0
619 45 -4.0
724 45 -4.0
318 46 -4.0
513 46 -4.0
590 46 4.0
170 47 4.0
475 47 4.0
494 47 -4.0
621 47 -4.0
49 48 4.0
50 48 -4.0
147 48 4.0
812 48 -4.0
71 49 -4.0
413 49 -4.0
811 49 4.0
199 50 4.0
413 50 -4.0
769 50 4.0
52 51 4.0
102 51 -4.0
698 51 4.0
908 51 -4.0
133 52 -4.0
147 52 -4.0
960 52 4.0
239 53 4.0
284 53 4.0
919 53 -4.0
972 53 -4.0
178 54 -4.0
252 54 -4.0
288 54 4.0
140 55 4.0
423 55 -4.0
560 55 -4.0
879 55 4.0
57 56 4.0
220 56 -4.0
752 56 -4.0
791 56 4.0
139 57 -4.0
179 57 -4.0
180 57 4.0
157 58 4.0
493 58 4.0
516 58 -4.0
622 58 -4.0
60 59 4.0
573 59 -4.0
851 59 4.0
953 59 -4.0
464 60 -4.0
598 60 -4.0
730 60 4.0
62 61 -4.0
134 61 4.0
770 61 -4.0
851 61 4.0
214 62 4.0
417 62 -4.0
810 62 4.0
115 63 -4.0
735 63 4.0
856 63 -4.0
1015 63 4.0
190 64 -4.0
248 64 -4.0
298 64 4.0
980 64 4.0
66 65 4.0
232 65 -4.0
711 65 -4.0
755 65 4.0
166 66 -4.0
167 66 4.0
407 66 -4.0
537 67 4.0
719 67 -4.0
838 67 4.0
69 68 -4.0
94 68 4.0
460 68 -4.0
537 68 4.0
208 69 4.0
459 69 -4.0
645 69 4.0
144 70 4.0
515 70 4.0
541 70 -4.0
655 70 -4.0
72 71 4.0
544 71 -4.0
903 71 4.0
450 72 -4.0
571 72 -4.0
767 72 4.0
74 73 -4.0
122 73 4.0
733 73 -4.0
903 73 4.0
419 74 -4.0
808 74 4.0
853 74 4.0
76 75 4.0
124 75 -4.0
774 75 4.0
813 75 -4.0
121 76 4.0
122 76 -4.0
546 76 -4.0
735 77 -4.0
737 77 4.0
774 77 4.0
776 77 -4.0
239 78 -4.0
260 78 4.0
205 79 -4.0
305 79 4.0
558 79 -4.0
927 79 4.0
81 80 4.0
242 80 -4.0
675 80 -4.0
714 80 4.0
152 81 -4.0
153 81 4.0
404 81 -4.0
563 82 4.0
761 82 -4.0
794 82 4.0
515 83 -4.0
540 83 4.0
891 83 4.0
942 83 -4.0
131 84 4.0
540 84 4.0
569 84 -4.0
691 84 -4.0
86 85 4.0
99 85 4.0
519 85 -4.0
440 86 -4.0
543 86 -4.0
807 86 4.0
88 87 4.0
574 87 -4.0
771 87 -4.0
816 87 4.0
113 88 4.0
414 88 -4.0
521 88 -4.0
698 89 -4.0
700 89 4.0
816 89 4.0
819 89 -4.0
218 90 -4.0
314 90 4.0
533 90 -4.0
880 90 4.0
92 91 4.0
640 91 -4.0
677 91 4.0
103 92 -4.0
139 92 -4.0
141 92 4.0
587 93 4.0
758 93 4.0
797 93 -4.0
278 94 4.0
401 94 -4.0
941 94 -4.0
96 95 4.0
493 95 -4.0
568 95 4.0
997 95 -4.0
278 96 -4.0
390 96 4.0
841 96 -4.0
568 97 4.0
595 97 -4.0
727 97 -4.0
842 97 4.0
406 98 4.0
432 98 -4.0
518 98 -4.0
850 98 4.0
406 99 -4.0
956 99 4.0
1012 99 -4.0
479 100 4.0
732 100 4.0
813 100 -4.0
956 100 -4.0
102 101 -4.0
175 101 4.0
859 101 4.0
862 101 -4.0
270 102 4.0
661 102 4.0
104 103 4.0
106 103 4.0
882 103 -4.0
832 104 -4.0
983 104 -4.0
106 105 4.0
107 105 -4.0
641 105 4.0
407 106 -4.0
446 106 -4.0
426 107 -4.0
676 107 4.0
984 107 4.0
402 108 4.0
459 108 -4.0
684 108 4.0
992 108 -4.0
265 109 -4.0
383 109 4.0
461 109 4.0
800 109 -4.0
594 110 4.0
620 110 -4.0
764 110 -4.0
896 110 4.0
235 111 4.0
463 111 -4.0
896 111 4.0
897 111 -4.0
364 112 4.0
409 112 4.0
427 112 -4.0
497 112 -4.0
173 113 4.0
856 113 -4.0
906 113 -4.0
115 114 -4.0
161 114 4.0
910 114 4.0
913 114 -4.0
282 115 4.0
626 115 4.0
404 116 4.0
787 116 -4.0
930 116 -4.0
431 117 -4.0
437 117 -4.0
713 117 4.0
931 117 4.0
255 118 -4.0
377 118 4.0
474 118 4.0
763 118 -4.0
224 119 4.0
597 119 -4.0
842 119 -4.0
948 119 4.0
171 120 -4.0
372 120 4.0
411 120 4.0
478 120 -4.0
159 121 4.0
854 121 -4.0
908 121 -4.0
734 122 -4.0
810 122 4.0
124 123 -4.0
150 123 4.0
961 123 4.0
964 123 -4.0
293 124 4.0
600 124 4.0
126 125 4.0
665 125 -4.0
920 125 4.0
975 125 -4.0
340 126 4.0
578 126 -4.0
741 126 -4.0
407 127 4.0
750 127 -4.0
883 127 -4.0
436 128 -4.0
446 128 -4.0
754 128 4.0
884 128 4.0
343 129 4.0
437 129 4.0
446 129 -4.0
678 129 -4.0
131 130 -4.0
211 130 4.0
623 130 -4.0
1003 130 4.0
292 131 -4.0
803 131 4.0
158 132 -4.0
380 132 4.0
413 132 4.0
464 132 -4.0
146 133 4.0
811 133 -4.0
1015 133 4.0
696 134 -4.0
853 134 4.0
1015 134 -4.0
574 135 -4.0
818 135 4.0
1019 135 4.0
1022 135 -4.0
176 136 4.0
739 136 -4.0
818 136 4.0
138 137 4.0
631 137 -4.0
871 137 4.0
1031 137 -4.0
334 138 4.0
552 138 -4.0
703 138 -4.0
140 139 4.0
423 139 4.0
314 140 -4.0
833 140 -4.0
641 141 4.0
985 141 -4.0
986 141 -4.0
143 142 4.0
144 142 -4.0
196 142 4.0
656 142 -4.0
250 143 4.0
596 143 -4.0
895 143 -4.0
280 144 -4.0
802 144 4.0
496 145 4.0
806 145 4.0
953 145 -4.0
354 146 -4.0
768 146 -4.0
660 147 -4.0
905 147 4.0
174 148 4.0
499 148 -4.0
549 148 4.0
960 148 -4.0
150 149 -4.0
162 149 4.0
526 149 -4.0
861 149 4.0
600 150 -4.0
914 150 4.0
325 151 4.0
528 151 -4.0
664 151 -4.0
826 151 4.0
673 152 4.0
677 153 4.0
932 153 -4.0
933 153 -4.0
194 154 4.0
541 154 -4.0
653 154 4.0
156 155 4.0
157 155 -4.0
184 155 4.0
692 155 -4.0
244 156 4.0
570 156 -4.0
946 156 -4.0
267 157 -4.0
843 157 4.0
477 158 4.0
849 158 4.0
1006 158 -4.0
359 159 -4.0
731 159 -4.0
355 160 -4.0
522 160 4.0
908 160 4.0
909 160 -4.0
415 161 -4.0
626 161 -4.0
863 161 4.0
415 162 -4.0
466 162 4.0
482 162 -4.0
313 163 4.0
502 163 -4.0
629 163 -4.0
781 163 4.0
165 164 4.0
445 164 -4.0
928 164 4.0
981 164 -4.0
583 165 -4.0
639 166 4.0
752 166 -4.0
308 167 -4.0
714 167 4.0
885 167 -4.0
181 168 4.0
569 168 -4.0
618 168 4.0
234 169 4.0
449 169 4.0
542 169 -4.0
1001 169 -4.0
256 170 -4.0
449 170 -4.0
898 170 4.0
172 171 4.0
198 171 4.0
951 171 -4.0
463 172 4.0
598 172 -4.0
765 172 -4.0
693 173 -4.0
695 173 -4.0
360 174 -4.0
856 174 4.0
857 174 -4.0
366 175 4.0
418 175 -4.0
661 175 -4.0
418 176 -4.0
452 176 4.0
501 176 -4.0
304 177 4.0
483 177 -4.0
603 177 -4.0
743 177 4.0
879 178 4.0
608 179 4.0
711 179 -4.0
317 180 -4.0
755 180 4.0
834 180 -4.0
223 181 4.0
593 181 -4.0
1001 181 -4.0
223 182 -4.0
462 182 4.0
517 182 -4.0
654 182 4.0
250 183 -4.0
462 183 -4.0
949 183 4.0
185 184 4.0
462 184 -4.0
477 184 -4.0
427 185 4.0
571 185 -4.0
728 185 -4.0
373 186 -4.0
953 186 4.0
954 186 -4.0
258 187 4.0
813 187 -4.0
909 187 4.0
365 188 -4.0
813 188 4.0
814 188 -4.0
1019 188 4.0
294 189 4.0
467 189 -4.0
578 189 -4.0
705 189 4.0
831 190 4.0
584 191 4.0
675 191 -4.0
327 192 -4.0
789 192 -4.0
791 192 4.0
319 193 -4.0
566 193 4.0
567 193 -4.0
619 193 4.0
210 194 4.0
619 194 -4.0
946 194 -4.0
210 195 -4.0
476 195 4.0
495 195 -4.0
690 195 4.0
197 196 4.0
476 196 -4.0
496 196 -4.0
432 197 4.0
543 197 -4.0
692 197 -4.0
199 198 4.0
432 198 -4.0
1009 198 -4.0
381 199 -4.0
904 199 -4.0
269 200 4.0
771 200 -4.0
857 200 4.0
374 201 -4.0
771 201 4.0
772 201 -4.0
961 201 4.0
422 202 4.0
525 202 -4.0
600 202 4.0
962 202 -4.0
453 203 -4.0
552 203 -4.0
667 203 4.0
973 203 4.0
247 204 4.0
430 204 -4.0
555 204 4.0
580 204 -4.0
786 205 4.0
275 206 -4.0
350 206 4.0
424 206 4.0
787 206 -4.0
336 207 -4.0
752 207 4.0
753 207 -4.0
835 207 4.0
393 208 -4.0
721 208 4.0
940 208 -4.0
592 209 -4.0
649 209 4.0
721 209 -4.0
996 209 4.0
369 210 4.0
727 210 -4.0
212 211 4.0
495 211 -4.0
1006 211 -4.0
440 212 4.0
518 212 -4.0
656 212 -4.0
353 213 4.0
440 213 -4.0
623 213 -4.0
848 213 4.0
385 214 -4.0
849 214 4.0
852 214 -4.0
425 215 4.0
500 215 -4.0
626 215 4.0
911 215 -4.0
228 216 -4.0
528 216 -4.0
632 216 4.0
1030 216 4.0
240 217 4.0
435 217 -4.0
530 217 4.0
605 217 -4.0
748 218 4.0
287 219 -4.0
426 219 4.0
750 219 -4.0
751 219 4.0
221 220 4.0
473 220 4.0
987 220 -4.0
344 221 -4.0
711 221 4.0
712 221 -4.0
392 222 4.0
611 222 4.0
681 222 -4.0
993 222 -4.0
378 223 4.0
764 223 -4.0
225 224 4.0
517 224 -4.0
951 224 -4.0
450 225 4.0
497 225 -4.0
623 225 -4.0
358 226 4.0
450 226 -4.0
656 226 -4.0
902 226 4.0
428 227 4.0
481 227 -4.0
661 227 4.0
860 227 -4.0
229 228 4.0
230 228 4.0
429 228 -4.0
467 229 -4.0
601 229 4.0
662 229 -4.0
502 230 -4.0
503 230 -4.0
297 231 -4.0
314 231 -4.0
431 231 4.0
788 231 4.0
233 232 4.0
458 232 4.0
935 232 -4.0
342 233 -4.0
352 233 -4.0
675 233 4.0
620 234 -4.0
622 234 -4.0
1000 234 4.0
236 235 4.0
542 235 -4.0
900 235 -4.0
464 236 4.0
478 236 -4.0
597 236 -4.0
363 237 4.0
371 237 4.0
464 237 -4.0
692 237 -4.0
433 238 4.0
465 238 -4.0
699 238 4.0
817 238 -4.0
453 239 4.0
483 239 -4.0
455 240 -4.0
305 241 -4.0
436 241 4.0
490 241 -4.0
833 241 4.0
243 242 4.0
448 242 4.0
988 242 -4.0
351 243 -4.0
640 243 4.0
642 243 -4.0
594 244 4.0
595 244 -4.0
621 244 -4.0
333 245 -4.0
355 245 4.0
774 245 4.0
1016 245 -4.0
441 246 4.0
451 246 -4.0
736 246 4.0
775 246 -4.0
470 247 -4.0
341 248 4.0
388 249 -4.0
390 249 4.0
723 249 4.0
840 249 -4.0
568 250 4.0
569 250 -4.0
338 251 -4.0
347 251 4.0
735 251 4.0
959 251 -4.0
349 252 4.0
512 253 4.0
537 253 -4.0
679 253 -4.0
718 253 4.0
383 254 4.0
763 254 4.0
798 254 -4.0
889 254 -4.0
279 255 -4.0
378 255 4.0
540 255 4.0
540 256 4.0
541 256 -4.0
1003 256 4.0
353 257 -4.0
384 257 -4.0
656 257 4.0
1003 257 4.0
693 258 4.0
733 258 -4.0
852 258 -4.0
260 259 -4.0
261 259 4.0
454 259 -4.0
504 259 4.0
325 260 4.0
579 260 -4.0
468 261 -4.0
507 261 4.0
531 261 -4.0
356 262 4.0
583 262 -4.0
264 263 4.0
439 263 4.0
458 263 -4.0
536 263 -4.0
563 264 -4.0
643 264 -4.0
682 264 4.0
266 265 4.0
491 265 4.0
725 265 -4.0
377 266 4.0
762 266 -4.0
840 266 -4.0
515 267 4.0
516 267 -4.0
948 267 4.0
358 268 -4.0
391 268 -4.0
692 268 4.0
948 268 4.0
731 269 4.0
770 269 -4.0
809 269 -4.0
333 270 4.0
548 270 -4.0
857 270 -4.0
304 271 4.0
468 271 4.0
529 271 -4.0
1030 271 -4.0
334 272 4.0
468 272 -4.0
553 272 4.0
604 272 -4.0
361 273 4.0
559 273 -4.0
275 274 4.0
276 274 -4.0
884 274 -4.0
983 274 4.0
559 275 4.0
560 275 -4.0
341 276 4.0
583 276 4.0
584 276 -4.0
561 277 4.0
587 277 -4.0
609 277 -4.0
646 277 4.0
279 278 -4.0
722 278 4.0
763 279 4.0
943 279 4.0
493 280 4.0
494 280 -4.0
896 280 4.0
363 281 -4.0
728 281 4.0
896 281 4.0
897 281 -4.0
323 282 4.0
523 282 -4.0
814 282 -4.0
294 283 4.0
484 283 4.0
505 283 -4.0
973 283 -4.0
340 284 4.0
484 284 -4.0
635 284 -4.0
368 285 4.0
534 285 -4.0
287 286 4.0
288 286 -4.0
930 286 4.0
931 286 -4.0
534 287 4.0
535 287 -4.0
349 288 4.0
608 288 -4.0
585 289 -4.0
643 289 -4.0
835 289 4.0
986 289 4.0
291 290 -4.0
460 290 4.0
686 290 4.0
891 290 -4.0
723 291 4.0
800 291 -4.0
998 291 4.0
475 292 4.0
842 292 4.0
547 293 -4.0
697 293 4.0
772 293 -4.0
918 294 -4.0
920 294 -4.0
348 295 4.0
505 295 -4.0
669 295 -4.0
297 296 4.0
298 296 -4.0
883 296 4.0
984 296 -4.0
510 297 4.0
511 297 -4.0
356 298 4.0
639 298 -4.0
609 299 -4.0
679 299 -4.0
791 299 4.0
933 299 4.0
301 300 4.0
687 300 4.0
841 300 -4.0
941 300 -4.0
618 301 -4.0
620 301 -4.0
359 302 -4.0
480 302 4.0
733 302 4.0
773 302 -4.0
915 303 4.0
1021 303 4.0
1022 303 -4.0
1025 303 -4.0
869 304 -4.0
871 304 -4.0
361 305 4.0
673 305 -4.0
308 306 4.0
834 306 4.0
885 306 -4.0
933 306 -4.0
308 307 4.0
643 307 -4.0
716 307 -4.0
755 307 4.0
987 308 -4.0
310 309 4.0
651 309 4.0
893 309 -4.0
995 309 -4.0
494 310 4.0
592 310 -4.0
595 310 -4.0
547 311 4.0
548 311 -4.0
861 311 -4.0
963 311 4.0
963 312 4.0
964 312 -4.0
966 312 4.0
967 312 -4.0
504 313 4.0
825 313 -4.0
827 313 -4.0
368 314 4.0
317 315 4.0
789 315 4.0
932 315 -4.0
986 315 -4.0
317 316 4.0
679 316 -4.0
714 316 4.0
757 316 -4.0
934 317 -4.0
319 318 4.0
616 318 4.0
944 318 -4.0
516 319 4.0
569 319 -4.0
520 320 4.0
1006 320 4.0
1007 320 -4.0
1008 320 -4.0
322 321 4.0
519 321 4.0
520 321 -4.0
659 321 -4.0
769 322 -4.0
807 322 -4.0
955 322 4.0
359 323 4.0
858 323 -4.0
958 323 -4.0
912 324 4.0
913 324 -4.0
916 324 -4.0
1024 324 4.0
780 325 -4.0
782 325 -4.0
327 326 4.0
677 326 4.0
716 326 -4.0
793 326 -4.0
790 327 4.0
886 327 -4.0
329 328 4.0
537 328 4.0
538 328 -4.0
590 328 -4.0
567 329 -4.0
613 329 -4.0
373 330 -4.0
545 330 4.0
951 330 4.0
952 330 -4.0
332 331 4.0
544 331 4.0
545 331 -4.0
693 331 -4.0
767 332 -4.0
810 332 -4.0
905 332 4.0
354 333 4.0
907 333 -4.0
742 334 -4.0
744 334 -4.0
336 335 4.0
641 335 4.0
757 335 -4.0
837 335 -4.0
754 336 4.0
836 336 -4.0
381 337 -4.0
572 337 4.0
900 337 4.0
901 337 -4.0
346 338 4.0
855 338 -4.0
1017 338 4.0
575 339 4.0
1017 339 4.0
1018 339 -4.0
1020 339 -4.0
704 340 -4.0
706 340 -4.0
979 341 -4.0
981 341 -4.0
674 342 4.0
713 342 4.0
788 342 -4.0
344 343 4.0
793 343 -4.0
887 343 -4.0
713 344 4.0
792 344 -4.0
385 345 -4.0
599 345 4.0
846 345 4.0
847 345 -4.0
810 346 4.0
811 346 -4.0
814 346 -4.0
600 347 4.0
960 347 -4.0
962 347 -4.0
665 348 4.0
666 348 -4.0
668 348 -4.0
926 349 -4.0
928 349 -4.0
351 350 4.0
608 350 -4.0
712 350 -4.0
676 351 4.0
751 351 -4.0
676 352 4.0
678 352 4.0
756 352 -4.0
1004 353 4.0
1007 353 -4.0
769 354 4.0
772 354 -4.0
626 355 4.0
911 355 -4.0
878 356 -4.0
881 356 -4.0
654 357 4.0
998 357 4.0
999 357 -4.0
1002 357 -4.0
949 358 4.0
952 358 -4.0
732 359 4.0
661 360 4.0
858 360 4.0
860 360 -4.0
830 361 -4.0
832 361 -4.0
690 362 4.0
943 362 4.0
944 362 -4.0
947 362 -4.0
898 363 4.0
901 363 -4.0
693 364 -4.0
904 364 -4.0
1008 364 4.0
699 365 4.0
815 365 4.0
817 365 -4.0
367 366 4.0
700 366 -4.0
821 366 -4.0
702 367 4.0
778 367 -4.0
914 367 -4.0
785 368 -4.0
787 368 -4.0
892 369 4.0
893 369 -4.0
895 369 -4.0
729 370 4.0
843 370 4.0
844 370 -4.0
847 370 -4.0
373 371 4.0
729 371 -4.0
1008 371 -4.0
373 372 4.0
731 372 -4.0
954 372 -4.0
736 374 4.0
773 374 4.0
775 374 -4.0
376 375 4.0
746 375 -4.0
395 376 -4.0
1033 376 4.0
1034 376 -4.0
994 377 -4.0
997 377 -4.0
841 378 -4.0
946 378 -4.0
766 379 4.0
802 379 4.0
803 379 -4.0
805 379 -4.0
381 380 4.0
768 380 -4.0
1010 380 -4.0
902 381 4.0
784 382 -4.0
1035 382 4.0
940 383 -4.0
942 383 -4.0
803 384 4.0
1001 384 4.0
1002 384 -4.0
808 385 4.0
848 385 4.0
387 386 4.0
829 386 -4.0
922 387 4.0
923 387 -4.0
925 387 -4.0
389 388 4.0
839 388 4.0
940 388 -4.0
991 389 4.0
992 389 -4.0
993 389 -4.0
890 390 -4.0
891 390 -4.0
844 391 4.0
946 391 4.0
947 391 -4.0
393 392 4.0
890 392 -4.0
994 392 -4.0
938 393 4.0
939 393 -4.0
918 394 4.0
1026 394 4.0
1027 394 -4.0
1029 394 -4.0
1035 395 4.0
447 396 -4.0
873 397 -4.0
919 397 4.0
974 398 4.0
460 399 -4.0
491 399 -4.0
538 399 -4.0
563 399 4.0
404 400 -4.0
437 400 -4.0
674 400 -4.0
513 401 -4.0
564 401 -4.0
587 401 4.0
491 402 -4.0
539 402 -4.0
588 402 -4.0
513 403 -4.0
565 403 -4.0
612 403 -4.0
646 403 4.0
929 404 -4.0
539 405 -4.0
589 405 -4.0
647 405 -4.0
682 405 4.0
520 406 -4.0
982 407 -4.0
565 408 -4.0
614 408 -4.0
683 408 -4.0
718 408 4.0
545 409 -4.0
903 409 -4.0
589 410 -4.0
649 410 -4.0
719 410 -4.0
760 410 4.0
572 411 -4.0
851 411 -4.0
614 412 -4.0
685 412 -4.0
761 412 -4.0
796 412 4.0
599 413 -4.0
769 414 4.0
771 414 -4.0
1012 414 -4.0
550 415 -4.0
912 415 4.0
649 416 -4.0
721 416 -4.0
797 416 -4.0
839 416 4.0
625 417 -4.0
806 417 4.0
576 418 -4.0
963 418 4.0
658 419 -4.0
849 419 4.0
526 420 -4.0
601 420 -4.0
700 420 -4.0
1021 420 4.0
443 421 -4.0
876 421 -4.0
550 422 -4.0
627 422 -4.0
737 422 -4.0
436 423 -4.0
640 424 -4.0
752 424 -4.0
576 425 -4.0
662 425 -4.0
776 425 -4.0
711 426 -4.0
900 427 -4.0
953 427 -4.0
601 428 -4.0
701 428 -4.0
819 428 -4.0
483 429 -4.0
576 429 4.0
701 429 -4.0
486 430 -4.0
675 431 -4.0
846 432 -4.0
627 433 -4.0
738 433 -4.0
862 433 -4.0
453 434 -4.0
502 434 -4.0
550 434 4.0
738 434 -4.0
507 435 -4.0
640 436 -4.0
438 437 -4.0
458 438 -4.0
754 438 4.0
512 439 -4.0
642 439 -4.0
849 440 -4.0
662 441 -4.0
777 441 -4.0
913 441 -4.0
467 442 -4.0
526 442 4.0
528 442 -4.0
777 442 -4.0
444 443 -4.0
506 443 4.0
636 443 -4.0
531 444 -4.0
559 445 -4.0
447 446 -4.0
473 447 -4.0
790 447 4.0
512 448 -4.0
561 448 -4.0
463 449 -4.0
728 449 -4.0
806 450 -4.0
701 451 -4.0
820 451 -4.0
964 451 -4.0
483 452 -4.0
552 452 -4.0
820 452 -4.0
968 453 -4.0
484 454 -4.0
486 454 4.0
556 454 -4.0
456 455 -4.0
485 455 4.0
670 455 -4.0
556 456 -4.0
534 457 -4.0
879 457 -4.0
585 458 -4.0
512 459 -4.0
585 459 -4.0
566 460 -4.0
475 461 -4.0
594 461 4.0
765 462 -4.0
738 465 -4.0
864 465 -4.0
1022 465 -4.0
502 466 -4.0
578 466 -4.0
864 466 -4.0
630 467 -4.0
469 468 -4.0
470 469 4.0
505 469 -4.0
581 469 -4.0
471 470 -4.0
708 470 -4.0
581 471 -4.0
510 472 -4.0
831 472 -4.0
561 473 -4.0
609 473 -4.0
1000 474 4.0
998 475 4.0
621 476 -4.0
804 476 -4.0
624 477 -4.0
804 477 -4.0
544 478 -4.0
729 478 -4.0
480 479 -4.0
498 479 -4.0
695 479 -4.0
522 480 -4.0
574 480 -4.0
777 481 -4.0
915 481 -4.0
528 482 -4.0
603 482 -4.0
915 482 -4.0
485 484 -4.0
529 485 -4.0
606 485 -4.0
487 486 -4.0
1033 486 -4.0
606 487 -4.0
489 488 -4.0
786 488 -4.0
490 489 -4.0
785 489 -4.0
749 490 -4.0
995 491 -4.0
494 492 -4.0
726 492 4.0
945 492 4.0
943 493 4.0
622 495 -4.0
845 495 -4.0
657 496 -4.0
845 496 -4.0
519 497 -4.0
766 497 -4.0
547 498 -4.0
734 498 -4.0
859 498 4.0
548 499 -4.0
963 499 4.0
820 500 -4.0
966 500 -4.0
552 501 -4.0
629 501 -4.0
966 501 -4.0
504 503 4.0
554 504 -4.0
506 505 -4.0
554 506 -4.0
637 506 -4.0
508 507 -4.0
977 507 -4.0
637 508 -4.0
511 509 -4.0
748 509 -4.0
747 510 -4.0
880 510 -4.0
830 511 -4.0
763 513 4.0
516 514 -4.0
689 514 4.0
894 514 4.0
892 515 4.0
655 517 -4.0
899 517 -4.0
520 518 -4.0
805 518 -4.0
657 519 -4.0
523 521 -4.0
696 521 -4.0
910 521 4.0
524 522 -4.0
524 523 -4.0
912 524 -4.0
864 525 -4.0
1024 525 -4.0
527 526 -4.0
578 527 -4.0
664 527 -4.0
1024 527 -4.0
530 529 -4.0
634 529 -4.0
579 530 -4.0
671 530 -4.0
532 531 -4.0
922 531 -4.0
671 532 -4.0
535 533 -4.0
927 534 -4.0
878 535 -4.0
538 536 -4.0
716 536 -4.0
760 536 4.0
680 538 4.0
723 539 4.0
799 541 -4.0
691 542 -4.0
950 542 -4.0
545 543 -4.0
847 543 -4.0
624 544 -4.0
548 546 -4.0
660 546 -4.0
961 546 4.0
549 547 -4.0
861 549 4.0
551 550 -4.0
603 551 -4.0
703 551 -4.0
1025 551 4.0
630 553 -4.0
870 553 -4.0
1029 553 -4.0
555 554 -4.0
668 554 -4.0
604 555 -4.0
709 555 -4.0
557 556 -4.0
874 556 -4.0
709 557 -4.0
560 558 -4.0
980 559 -4.0
926 560 -4.0
562 561 -4.0
564 562 -4.0
757 562 -4.0
796 562 4.0
613 563 4.0
613 564 -4.0
644 564 4.0
567 565 -4.0
687 565 4.0
685 566 -4.0
725 566 -4.0
800 568 4.0
597 570 -4.0
727 570 -4.0
1005 570 -4.0
572 571 -4.0
901 571 -4.0
730 572 -4.0
694 573 -4.0
730 573 -4.0
853 573 -4.0
575 574 4.0
818 575 -4.0
1021 575 4.0
577 576 -4.0
629 577 -4.0
741 577 -4.0
967 577 4.0
580 579 -4.0
706 579 -4.0
635 580 -4.0
746 580 -4.0
582 581 -4.0
923 581 -4.0
746 582 -4.0
674 584 -4.0
832 584 -4.0
586 585 -4.0
588 586 -4.0
793 586 -4.0
839 586 4.0
648 587 4.0
610 588 4.0
648 588 -4.0
591 589 -4.0
651 589 4.0
591 590 -4.0
648 590 -4.0
592 591 -4.0
593 592 4.0
595 593 -4.0
841 594 4.0
623 596 -4.0
764 596 -4.0
846 597 -4.0
599 598 -4.0
952 598 -4.0
767 599 -4.0
602 601 -4.0
664 602 -4.0
779 602 -4.0
916 602 4.0
665 603 -4.0
605 604 -4.0
744 604 -4.0
669 605 -4.0
784 605 -4.0
607 606 -4.0
978 606 -4.0
784 607 -4.0
881 608 -4.0
611 609 -4.0
612 610 -4.0
990 610 4.0
612 611 -4.0
837 611 -4.0
684 612 -4.0
615 613 -4.0
616 614 4.0
617 614 -4.0
617 615 -4.0
684 615 -4.0
995 615 4.0
618 616 -4.0
994 616 4.0
618 617 -4.0
620 619 -4.0
1004 621 4.0
1004 622 -4.0
625 624 -4.0
1007 624 -4.0
807 625 -4.0
848 625 4.0
628 627 -4.0
968 627 -4.0
703 628 -4.0
823 628 -4.0
865 628 4.0
631 629 -4.0
633 630 -4.0
971 630 -4.0
633 631 -4.0
823 631 -4.0
634 632 4.0
869 632 -4.0
634 633 -4.0
707 634 -4.0
636 635 -4.0
782 635 -4.0
707 636 -4.0
829 636 -4.0
638 637 -4.0
1034 637 -4.0
829 638 -4.0
751 639 -4.0
928 639 -4.0
715 641 -4.0
715 642 -4.0
645 643 -4.0
647 644 -4.0
937 644 4.0
647 645 -4.0
887 645 -4.0
720 646 4.0
939 646 -4.0
720 647 -4.0
650 648 -4.0
652 649 -4.0
652 650 -4.0
720 650 -4.0
941 650 4.0
653 651 -4.0
940 651 4.0
653 652 -4.0
998 653 -4.0
655 654 -4.0
945 654 4.0
949 655 -4.0
658 657 -4.0
850 658 -4.0
902 658 4.0
732 659 -4.0
850 659 -4.0
1011 659 4.0
733 660 -4.0
858 660 4.0
663 662 -4.0
741 663 -4.0
821 663 4.0
867 663 -4.0
666 664 -4.0
779 665 -4.0
826 666 -4.0
867 666 -4.0
668 667 4.0
825 667 -4.0
974 667 4.0
745 668 -4.0
670 669 -4.0
827 669 -4.0
745 670 -4.0
875 670 -4.0
672 671 -4.0
875 672 -4.0
788 673 -4.0
981 673 -4.0
756 677 -4.0
837 678 -4.0
936 678 -4.0
681 679 -4.0
683 680 -4.0
888 680 4.0
683 681 -4.0
936 681 -4.0
762 682 4.0
938 682 -4.0
762 683 -4.0
686 684 -4.0
688 685 -4.0
993 685 4.0
688 686 -4.0
762 686 -4.0
689 687 -4.0
890 687 4.0
689 688 -4.0
943 689 -4.0
691 690 -4.0
894 690 4.0
898 691 -4.0
695 694 -4.0
768 694 4.0
812 694 -4.0
697 695 -4.0
770 696 -4.0
815 696 4.0
815 697 -4.0
1014 697 -4.0
699 698 4.0
1017 698 4.0
700 699 -4.0
702 701 -4.0
779 702 -4.0
917 702 -4.0
704 703 -4.0
781 704 -4.0
917 704 -4.0
706 705 4.0
780 705 -4.0
919 705 4.0
783 706 -4.0
708 707 -4.0
871 707 -4.0
783 708 -4.0
924 708 -4.0
710 709 -4.0
924 710 -4.0
754 712 4.0
833 712 -4.0
792 714 -4.0
887 715 -4.0
989 715 -4.0
717 716 -4.0
719 717 -4.0
839 717 -4.0
989 717 -4.0
798 718 4.0
991 718 -4.0
798 719 -4.0
722 720 -4.0
724 721 -4.0
724 722 -4.0
798 722 -4.0
726 723 -4.0
726 724 -4.0
799 725 -4.0
892 725 4.0
892 726 -4.0
843 727 -4.0
729 728 -4.0
731 730 -4.0
773 734 4.0
812 734 -4.0
736 735 4.0
737 736 -4.0
863 737 -4.0
740 738 -4.0
740 739 -4.0
863 739 -4.0
968 739 -4.0
823 740 -4.0
970 740 -4.0
742 741 -4.0
743 742 -4.0
970 742 -4.0
744 743 4.0
870 743 4.0
828 744 -4.0
920 745 -4.0
1033 745 -4.0
749 747 -4.0
750 748 4.0
750 749 -4.0
979 749 -4.0
753 751 -4.0
790 753 4.0
883 753 -4.0
836 755 -4.0
758 756 -4.0
936 756 -4.0
759 757 -4.0
759 758 -4.0
836 758 -4.0
761 759 -4.0
796 759 -4.0
795 760 -4.0
840 760 4.0
840 761 -4.0
802 764 -4.0
766 765 -4.0
844 765 4.0
902 766 -4.0
768 767 -4.0
772 770 4.0
910 773 4.0
775 774 4.0
776 775 -4.0
914 776 -4.0
778 777 -4.0
867 778 -4.0
1028 778 -4.0
780 779 -4.0
1028 780 -4.0
782 781 4.0
872 782 -4.0
975 783 -4.0
977 783 -4.0
873 784 4.0
787 786 4.0
789 788 -4.0
930 789 -4.0
985 790 -4.0
886 791 -4.0
794 792 -4.0
989 792 -4.0
795 793 -4.0
795 794 -4.0
886 794 -4.0
797 795 -4.0
889 796 4.0
889 797 -4.0
801 799 -4.0
996 799 -4.0
801 800 -4.0
1001 801 -4.0
845 802 4.0
804 803 4.0
805 804 -4.0
848 805 -4.0
808 806 4.0
809 807 -4.0
809 808 -4.0
811 809 -4.0
814 812 4.0
859 815 4.0
817 816 4.0
858 816 4.0
819 817 -4.0
965 818 4.0
965 819 -4.0
822 820 -4.0
822 821 -4.0
965 821 -4.0
824 822 -4.0
917 822 -4.0
825 823 -4.0
825 824 -4.0
969 824 -4.0
827 826 4.0
921 827 -4.0
922 828 -4.0
1031 828 -4.0
1033 828 -4.0
832 831 4.0
834 833 -4.0
983 834 -4.0
934 835 -4.0
838 836 -4.0
991 837 -4.0
934 838 -4.0
991 838 -4.0
844 842 4.0
899 843 4.0
847 845 -4.0
852 850 -4.0
854 851 4.0
854 852 -4.0
855 853 4.0
855 854 -4.0
857 855 -4.0
957 856 -4.0
860 859 4.0
862 860 -4.0
1023 861 4.0
1023 862 -4.0
865 863 -4.0
866 864 -4.0
866 865 -4.0
1023 865 -4.0
868 866 -4.0
970 866 -4.0
869 867 -4.0
869 868 -4.0
1027 868 -4.0
976 870 4.0
976 871 -4.0
874 872 -4.0
977 872 -4.0
876 873 -4.0
876 874 -4.0
976 874 -4.0
877 875 -4.0
877 876 -4.0
881 879 4.0
882 880 4.0
882 881 -4.0
884 882 -4.0
885 883 -4.0
885 884 -4.0
888 886 -4.0
938 887 -4.0
938 888 -4.0
987 888 -4.0
890 889 -4.0
893 891 -4.0
1000 893 4.0
895 894 -4.0
999 894 4.0
897 895 -4.0
950 898 4.0
901 899 -4.0
1006 899 -4.0
1005 900 -4.0
906 903 4.0
906 904 -4.0
1011 904 -4.0
907 905 4.0
1010 905 -4.0
907 906 -4.0
909 907 -4.0
1013 908 -4.0
1017 909 -4.0
911 910 4.0
913 911 -4.0
916 914 -4.0
1026 915 -4.0
1026 916 -4.0
918 917 -4.0
1032 919 4.0
1032 920 -4.0
922 921 -4.0
923 921 -4.0
1032 923 -4.0
925 924 -4.0
929 927 4.0
929 928 -4.0
931 929 -4.0
932 930 -4.0
932 931 -4.0
935 933 -4.0
937 934 -4.0
937 935 -4.0
939 936 -4.0
939 937 -4.0
942 941 -4.0
944 942 -4.0
945 944 4.0
947 945 -4.0
1003 947 -4.0
1002 948 -4.0
1005 949 4.0
951 950 -4.0
952 950 -4.0
955 954 -4.0
956 954 -4.0
958 955 4.0
1013 955 4.0
958 956 -4.0
959 957 4.0
1011 957 4.0
959 958 -4.0
960 959 -4.0
962 961 4.0
964 962 -4.0
967 965 -4.0
969 966 -4.0
969 967 -4.0
971 968 -4.0
971 969 -4.0
972 970 -4.0
972 971 -4.0
973 972 -4.0
975 973 -4.0
978 976 -4.0
1035 977 4.0
1035 978 -4.0
982 980 4.0
982 981 -4.0
984 982 -4.0
985 983 -4.0
985 984 -4.0
988 986 -4.0
990 987 -4.0
990 988 -4.0
992 989 -4.0
992 990 -4.0
994 993 -4.0
997 995 -4.0
999 996 -4.0
999 997 -4.0
1002 1000 -4.0
1007 1005 -4.0
1009 1008 -4.0
1010 1009 -4.0
1012 1010 -4.0
1014 1011 4.0
1014 1012 -4.0
1016 1013 4.0
1016 1014 -4.0
1018 1015 4.0
1018 1016 -4.0
1019 1018 -4.0
1020 1019 4.0
1021 1020 -4.0
1022 1020 -4.0
1025 1023 -4.0
1027 1024 -4.0
1027 1025 -4.0
1028 1026 -4.0
1029 1028 -4.0
1030 1029 -4.0
1031 1030 -4.0
1034 1032 -4.0
0.0 # default value for linear coefficients in objective
640 # number of non-default linear coefficients in objective
396 2.0
397 2.0
398 2.0
399 2.0
400 4.0
401 2.0
402 2.0
403 2.0
404 2.0
405 2.0
406 2.0
407 2.0
408 2.0
409 2.0
410 2.0
411 2.0
412 2.0
413 2.0
414 2.0
415 2.0
416 2.0
417 2.0
418 2.0
419 2.0
420 2.0
421 2.0
422 2.0
423 2.0
424 2.0
425 2.0
426 2.0
427 2.0
428 2.0
429 2.0
430 2.0
431 2.0
432 2.0
433 2.0
434 2.0
435 2.0
436 2.0
437 2.0
438 2.0
439 2.0
440 2.0
441 2.0
442 2.0
443 2.0
444 2.0
445 2.0
446 4.0
447 2.0
448 2.0
449 2.0
450 2.0
451 4.0
452 2.0
453 2.0
454 2.0
455 2.0
456 2.0
457 2.0
458 2.0
459 4.0
460 2.0
461 -2.0
462 2.0
463 2.0
464 2.0
465 4.0
466 2.0
467 4.0
468 2.0
469 2.0
470 2.0
471 2.0
472 2.0
473 2.0
474 -2.0
475 -2.0
476 2.0
477 2.0
478 4.0
479 2.0
480 2.0
481 2.0
482 4.0
483 4.0
484 2.0
485 2.0
486 2.0
487 2.0
488 2.0
489 4.0
490 4.0
491 2.0
492 -2.0
493 -2.0
494 2.0
495 4.0
496 2.0
497 4.0
498 2.0
499 2.0
500 2.0
501 4.0
502 4.0
503 2.0
504 -2.0
505 4.0
506 2.0
507 2.0
508 2.0
509 2.0
510 2.0
511 4.0
512 2.0
513 2.0
514 -2.0
515 -2.0
516 2.0
517 4.0
518 4.0
519 2.0
520 2.0
521 2.0
522 2.0
523 4.0
524 4.0
525 4.0
526 2.0
527 4.0
528 4.0
529 4.0
530 2.0
531 4.0
532 2.0
533 2.0
534 2.0
535 4.0
536 2.0
537 -2.0
538 2.0
539 2.0
540 -4.0
541 4.0
542 4.0
543 4.0
544 2.0
545 2.0
546 2.0
547 2.0
548 4.0
549 -2.0
550 2.0
551 2.0
552 4.0
553 2.0
554 4.0
555 2.0
556 4.0
557 2.0
558 2.0
559 2.0
560 4.0
561 2.0
562 2.0
563 -2.0
564 2.0
565 2.0
566 2.0
567 2.0
568 -4.0
569 4.0
570 4.0
571 4.0
572 2.0
573 4.0
574 2.0
575 -2.0
576 2.0
577 2.0
578 4.0
579 4.0
580 4.0
581 4.0
582 2.0
583 2.0
584 2.0
585 4.0
586 2.0
587 -2.0
588 2.0
589 2.0
590 2.0
591 2.0
592 2.0
593 2.0
594 -4.0
595 4.0
596 4.0
597 4.0
598 4.0
599 2.0
600 -2.0
601 2.0
602 2.0
603 4.0
604 4.0
605 4.0
606 4.0
607 2.0
608 2.0
609 4.0
610 -2.0
611 2.0
612 4.0
613 2.0
614 2.0
615 2.0
616 -2.0
617 4.0
618 2.0
619 2.0
620 4.0
621 2.0
622 4.0
623 4.0
624 4.0
625 2.0
626 -2.0
627 4.0
628 2.0
629 4.0
630 4.0
631 4.0
632 -2.0
633 4.0
634 2.0
635 4.0
636 4.0
637 4.0
638 2.0
639 2.0
640 2.0
641 -2.0
642 4.0
643 4.0
644 -2.0
645 2.0
646 -2.0
647 4.0
648 2.0
649 2.0
650 2.0
651 -2.0
652 4.0
653 2.0
654 -2.0
655 4.0
656 2.0
657 2.0
658 2.0
659 2.0
660 2.0
661 -2.0
662 4.0
663 2.0
664 4.0
665 2.0
666 4.0
667 -2.0
668 2.0
669 4.0
670 4.0
671 2.0
672 2.0
673 2.0
674 2.0
675 2.0
676 -4.0
677 -2.0
678 2.0
679 4.0
680 -2.0
681 4.0
682 -2.0
683 4.0
684 2.0
685 2.0
686 2.0
687 -2.0
688 4.0
689 2.0
690 -2.0
691 4.0
692 2.0
693 2.0
694 2.0
695 4.0
696 2.0
697 2.0
698 -2.0
699 -2.0
700 2.0
701 4.0
702 2.0
703 4.0
704 4.0
705 -2.0
706 2.0
707 4.0
708 4.0
709 2.0
710 2.0
711 2.0
712 2.0
713 -4.0
714 -2.0
715 4.0
716 4.0
717 4.0
718 -2.0
719 4.0
720 2.0
721 2.0
722 2.0
723 -2.0
724 4.0
725 2.0
726 2.0
727 4.0
728 2.0
729 2.0
730 2.0
731 2.0
732 -2.0
733 2.0
734 2.0
735 -2.0
736 -2.0
737 2.0
738 4.0
739 4.0
740 4.0
741 4.0
742 4.0
743 -2.0
744 2.0
745 4.0
746 2.0
747 2.0
748 -2.0
749 4.0
750 2.0
751 2.0
752 2.0
753 2.0
754 -4.0
755 -2.0
756 4.0
757 4.0
758 2.0
759 4.0
760 -2.0
761 4.0
762 2.0
763 -2.0
764 4.0
765 2.0
766 2.0
767 2.0
768 2.0
769 -2.0
770 2.0
771 2.0
772 2.0
773 -2.0
774 -4.0
775 2.0
776 4.0
777 4.0
778 4.0
779 4.0
780 4.0
781 -2.0
782 2.0
783 4.0
784 2.0
785 2.0
786 -2.0
787 2.0
788 2.0
789 2.0
790 -2.0
791 -2.0
792 4.0
793 4.0
794 2.0
795 4.0
796 -2.0
797 4.0
798 2.0
799 4.0
800 2.0
801 4.0
802 -2.0
803 -2.0
804 2.0
805 4.0
806 -2.0
807 2.0
808 -2.0
809 4.0
810 -2.0
811 2.0
812 2.0
813 2.0
814 2.0
815 -2.0
816 -4.0
817 2.0
818 -2.0
819 4.0
820 4.0
821 2.0
822 4.0
823 4.0
824 2.0
825 4.0
826 -2.0
827 2.0
828 4.0
829 4.0
830 2.0
831 -2.0
832 2.0
833 2.0
834 2.0
835 -2.0
836 4.0
837 4.0
838 2.0
839 -2.0
840 2.0
841 2.0
842 -2.0
843 -2.0
844 -2.0
845 2.0
846 2.0
847 4.0
848 -2.0
849 -2.0
850 2.0
851 -2.0
852 4.0
853 -2.0
854 2.0
855 2.0
856 2.0
857 2.0
858 -2.0
859 -4.0
860 2.0
861 -2.0
862 4.0
863 2.0
864 4.0
865 2.0
866 4.0
867 4.0
868 4.0
869 4.0
870 -2.0
871 2.0
872 2.0
873 2.0
874 4.0
875 4.0
876 4.0
877 2.0
878 2.0
879 -2.0
880 -2.0
881 2.0
882 2.0
883 2.0
884 2.0
885 4.0
886 4.0
887 4.0
888 2.0
889 2.0
890 2.0
891 2.0
892 -2.0
893 2.0
894 -2.0
895 4.0
896 -4.0
897 4.0
898 -2.0
899 2.0
900 2.0
901 4.0
902 -2.0
903 -2.0
904 4.0
905 -2.0
906 2.0
907 2.0
908 2.0
909 2.0
910 -4.0
911 2.0
912 -2.0
913 4.0
914 2.0
915 2.0
916 2.0
917 4.0
918 2.0
919 -2.0
920 2.0
921 2.0
922 2.0
923 4.0
924 4.0
925 2.0
926 2.0
927 -2.0
928 2.0
929 2.0
930 2.0
931 2.0
932 4.0
933 2.0
934 4.0
935 2.0
936 4.0
937 2.0
938 2.0
939 4.0
940 2.0
941 2.0
942 4.0
943 -2.0
944 2.0
945 -2.0
946 2.0
947 4.0
948 -2.0
949 -2.0
950 2.0
951 2.0
952 4.0
953 2.0
954 4.0
955 -2.0
956 2.0
957 -2.0
958 2.0
959 2.0
960 2.0
961 -4.0
962 2.0
963 -4.0
964 4.0
965 2.0
966 2.0
967 2.0
968 4.0
969 4.0
970 4.0
971 4.0
972 4.0
973 2.0
974 -2.0
975 4.0
976 2.0
977 2.0
978 4.0
979 2.0
980 -2.0
981 4.0
982 2.0
983 2.0
984 2.0
985 4.0
986 2.0
987 4.0
988 2.0
989 4.0
990 2.0
991 2.0
992 4.0
993 2.0
994 2.0
995 2.0
996 2.0
997 4.0
998 -2.0
999 2.0
1000 -2.0
1001 2.0
1002 4.0
1003 -2.0
1004 -2.0
1005 2.0
1006 2.0
1007 4.0
1008 2.0
1009 2.0
1010 4.0
1011 -2.0
1012 4.0
1013 -2.0
1014 2.0
1015 -2.0
1016 2.0
1017 -2.0
1018 2.0
1019 -2.0
1020 2.0
1021 -2.0
1022 4.0
1023 2.0
1024 2.0
1025 2.0
1026 2.0
1027 4.0
1028 4.0
1029 4.0
1030 2.0
1031 4.0
1032 2.0
1033 2.0
1034 4.0
1035 -2.0
0.0 # objective constant
1.79769313486232E+308 # value for infinity
0.0 # default variable primal value in starting point
0 # number of non-default variable primal values in starting point
0.0 # default variable bound dual value in starting point
0 # number of non-default variable bound dual values in starting point
0 # number of non-default variable names
0 # number of non-default constraint names
